3 16 1 10
5 5 10 1 1 6 1 19 10 6 4 2 14 6 16 20 
4.63 3.38 5.56 5.84 3.13 4.92 0.37 1.45 3.52 5.95 2.98 2.92 4.78 6.21 1.07 6.35 
4 4 4 4 4 4 4 4 4 4 4 4 4 4 4 4 
1.82 5.07 6.52 6.09 2.11 5.1 3.28 5.24 7.49 0 2.2 4.25 1.16 1.43 5.62 6.15 
1 1 1 1 1 1 1 1 1 1 1 1 1 1 1 1 
1 1 1 1 1 1 1 1 1 1 1 1 1 1 1 1 
1 1 1 1 1 1 1 1 1 1 1 1 1 1 1 1 
0.01 0.01 0.01 0.01 0.01 0.01 0.01 0.01 0.01 0.01 0.01 0.01 0.01 0.01 0.01 0.01 
0.02 0.02 0.02 0.02 0.02 0.02 0.02 0.02 0.02 0.02 0.02 0.02 0.02 0.02 0.02 0.02 
1 1 1 1 1 1 1 1 1 1 1 1 1 1 1 1 
